NAME : LPS-n28-m158
COMMENT : (Lartu-Peter-Santi Plot, instance 10158 out of 39200. 28 customers.)
TYPE : CVRP
DIMENSION : 28
EDGE_WEIGHT_TYPE : EUC_2D
CAPACITY : 107
NODE_COORD_SECTION
 1 94 58
 2 60 79
 3 39 0
 4 24 90
 5 13 35
 6 52 4
 7 55 78
 8 80 27
 9 93 68
 10 28 78
 11 80 32
 12 38 76
 13 64 18
 14 6 17
 15 84 26
 16 54 71
 17 98 22
 18 52 61
 19 71 96
 20 55 62
 21 76 20
 22 93 75
 23 51 50
 24 48 85
 25 66 99
 26 53 90
 27 63 12
 28 90 15
DEMAND_SECTION
1 0
2 81
3 10
4 105
5 69
6 94
7 74
8 26
9 97
10 9
11 25
12 38
13 48
14 20
15 24
16 66
17 46
18 49
19 72
20 90
21 90
22 28
23 41
24 57
25 16
26 66
27 55
28 60
DEPOT_SECTION
 1
 -1
EOF
